c "random instance"
p edges 150 2142
e 1 9
e 1 11
e 1 19
e 1 21
e 1 22
e 1 23
e 1 27
e 1 29
e 1 34
e 1 36
e 1 39
e 1 43
e 1 44
e 1 47
e 1 52
e 1 61
e 1 63
e 1 64
e 1 68
e 1 73
e 1 78
e 1 80
e 1 82
e 1 90
e 1 102
e 1 107
e 1 109
e 1 115
e 1 125
e 1 128
e 1 132
e 1 136
e 1 140
e 2 14
e 2 16
e 2 31
e 2 37
e 2 38
e 2 42
e 2 65
e 2 67
e 2 70
e 2 71
e 2 79
e 2 86
e 2 99
e 2 102
e 2 110
e 2 117
e 2 119
e 2 126
e 2 132
e 2 135
e 2 148
e 3 13
e 3 16
e 3 18
e 3 26
e 3 27
e 3 28
e 3 31
e 3 38
e 3 40
e 3 43
e 3 65
e 3 67
e 3 82
e 3 90
e 3 93
e 3 95
e 3 103
e 3 110
e 3 117
e 3 119
e 3 126
e 3 128
e 3 129
e 3 136
e 3 141
e 3 142
e 3 147
e 3 149
e 4 6
e 4 7
e 4 11
e 4 14
e 4 22
e 4 32
e 4 33
e 4 37
e 4 41
e 4 47
e 4 58
e 4 63
e 4 73
e 4 80
e 4 93
e 4 97
e 4 119
e 4 120
e 4 123
e 4 124
e 4 130
e 4 144
e 4 146
e 5 8
e 5 14
e 5 20
e 5 23
e 5 24
e 5 27
e 5 35
e 5 37
e 5 43
e 5 44
e 5 52
e 5 53
e 5 58
e 5 59
e 5 64
e 5 65
e 5 66
e 5 70
e 5 78
e 5 83
e 5 88
e 5 98
e 5 99
e 5 100
e 5 107
e 5 108
e 5 111
e 5 112
e 5 115
e 5 121
e 5 122
e 5 124
e 5 125
e 5 126
e 5 147
e 6 7
e 6 22
e 6 24
e 6 31
e 6 34
e 6 35
e 6 41
e 6 43
e 6 45
e 6 47
e 6 49
e 6 52
e 6 64
e 6 65
e 6 74
e 6 76
e 6 84
e 6 86
e 6 97
e 6 99
e 6 107
e 6 118
e 6 125
e 6 126
e 6 127
e 6 137
e 6 143
e 6 145
e 7 9
e 7 10
e 7 12
e 7 17
e 7 26
e 7 27
e 7 30
e 7 35
e 7 37
e 7 38
e 7 70
e 7 72
e 7 81
e 7 91
e 7 96
e 7 99
e 7 101
e 7 106
e 7 107
e 7 112
e 7 116
e 7 118
e 7 120
e 7 122
e 7 126
e 7 131
e 7 135
e 7 136
e 7 145
e 7 150
e 8 10
e 8 22
e 8 27
e 8 31
e 8 54
e 8 58
e 8 59
e 8 62
e 8 65
e 8 73
e 8 77
e 8 78
e 8 81
e 8 88
e 8 94
e 8 99
e 8 102
e 8 105
e 8 109
e 8 117
e 8 121
e 8 128
e 8 130
e 8 135
e 8 143
e 8 144
e 8 146
e 8 148
e 9 17
e 9 26
e 9 28
e 9 29
e 9 31
e 9 38
e 9 39
e 9 41
e 9 42
e 9 48
e 9 49
e 9 53
e 9 67
e 9 77
e 9 81
e 9 86
e 9 88
e 9 91
e 9 93
e 9 94
e 9 102
e 9 106
e 9 109
e 9 111
e 9 134
e 9 137
e 9 145
e 9 147
e 10 13
e 10 16
e 10 17
e 10 20
e 10 22
e 10 23
e 10 25
e 10 28
e 10 39
e 10 40
e 10 43
e 10 68
e 10 74
e 10 75
e 10 80
e 10 90
e 10 92
e 10 101
e 10 106
e 10 113
e 10 117
e 10 120
e 10 121
e 10 126
e 10 127
e 10 128
e 10 129
e 10 146
e 11 13
e 11 15
e 11 20
e 11 25
e 11 26
e 11 28
e 11 29
e 11 32
e 11 42
e 11 50
e 11 51
e 11 65
e 11 70
e 11 74
e 11 75
e 11 78
e 11 80
e 11 83
e 11 85
e 11 124
e 11 133
e 11 138
e 11 144
e 12 13
e 12 15
e 12 16
e 12 20
e 12 25
e 12 28
e 12 32
e 12 35
e 12 42
e 12 46
e 12 50
e 12 53
e 12 66
e 12 70
e 12 72
e 12 75
e 12 83
e 12 85
e 12 87
e 12 94
e 12 97
e 12 116
e 12 120
e 12 122
e 12 124
e 12 126
e 12 128
e 12 131
e 12 132
e 12 133
e 12 134
e 13 24
e 13 25
e 13 44
e 13 82
e 13 85
e 13 89
e 13 100
e 13 105
e 13 108
e 13 118
e 13 119
e 13 121
e 13 122
e 13 123
e 13 124
e 13 131
e 13 134
e 13 135
e 13 137
e 13 138
e 13 140
e 14 18
e 14 20
e 14 23
e 14 28
e 14 30
e 14 35
e 14 38
e 14 39
e 14 43
e 14 50
e 14 51
e 14 56
e 14 60
e 14 62
e 14 70
e 14 77
e 14 84
e 14 87
e 14 102
e 14 103
e 14 109
e 14 121
e 14 134
e 14 141
e 14 143
e 14 145
e 14 146
e 14 148
e 14 150
e 15 20
e 15 23
e 15 29
e 15 30
e 15 35
e 15 42
e 15 50
e 15 55
e 15 80
e 15 85
e 15 87
e 15 91
e 15 93
e 15 95
e 15 96
e 15 99
e 15 103
e 15 105
e 15 106
e 15 110
e 15 115
e 15 116
e 15 136
e 15 148
e 16 18
e 16 27
e 16 30
e 16 32
e 16 40
e 16 44
e 16 45
e 16 46
e 16 49
e 16 55
e 16 57
e 16 62
e 16 79
e 16 81
e 16 83
e 16 85
e 16 96
e 16 103
e 16 115
e 16 118
e 16 124
e 16 125
e 16 127
e 16 129
e 16 134
e 16 136
e 16 137
e 16 138
e 16 141
e 16 148
e 17 20
e 17 21
e 17 37
e 17 39
e 17 45
e 17 48
e 17 49
e 17 52
e 17 53
e 17 54
e 17 61
e 17 68
e 17 73
e 17 75
e 17 76
e 17 82
e 17 84
e 17 90
e 17 92
e 17 93
e 17 99
e 17 110
e 17 115
e 17 131
e 17 138
e 17 141
e 18 29
e 18 41
e 18 48
e 18 52
e 18 74
e 18 78
e 18 82
e 18 84
e 18 87
e 18 92
e 18 98
e 18 121
e 18 125
e 18 131
e 18 135
e 18 140
e 18 146
e 18 148
e 19 25
e 19 27
e 19 33
e 19 42
e 19 44
e 19 52
e 19 67
e 19 70
e 19 74
e 19 75
e 19 81
e 19 89
e 19 99
e 19 102
e 19 105
e 19 109
e 19 111
e 19 113
e 19 118
e 19 122
e 19 126
e 19 128
e 19 132
e 19 145
e 19 147
e 19 149
e 20 21
e 20 25
e 20 31
e 20 35
e 20 44
e 20 45
e 20 48
e 20 52
e 20 67
e 20 81
e 20 94
e 20 100
e 20 115
e 20 116
e 20 117
e 20 125
e 20 126
e 20 135
e 20 137
e 20 144
e 21 23
e 21 27
e 21 41
e 21 45
e 21 46
e 21 51
e 21 55
e 21 61
e 21 70
e 21 71
e 21 76
e 21 83
e 21 85
e 21 94
e 21 100
e 21 112
e 21 119
e 21 129
e 21 131
e 21 132
e 21 133
e 21 140
e 21 145
e 21 149
e 22 23
e 22 39
e 22 41
e 22 54
e 22 58
e 22 62
e 22 65
e 22 71
e 22 73
e 22 75
e 22 81
e 22 82
e 22 84
e 22 91
e 22 95
e 22 105
e 22 117
e 22 131
e 22 132
e 22 134
e 22 140
e 22 142
e 22 145
e 23 25
e 23 26
e 23 35
e 23 41
e 23 42
e 23 50
e 23 51
e 23 56
e 23 71
e 23 82
e 23 83
e 23 87
e 23 89
e 23 92
e 23 96
e 23 105
e 23 106
e 23 110
e 23 115
e 23 120
e 23 121
e 23 126
e 23 127
e 23 131
e 23 138
e 23 146
e 24 34
e 24 36
e 24 47
e 24 62
e 24 63
e 24 77
e 24 86
e 24 88
e 24 105
e 24 115
e 24 119
e 24 135
e 24 143
e 24 148
e 25 29
e 25 31
e 25 33
e 25 40
e 25 41
e 25 50
e 25 52
e 25 54
e 25 57
e 25 60
e 25 61
e 25 62
e 25 66
e 25 72
e 25 85
e 25 88
e 25 104
e 25 109
e 25 110
e 25 123
e 25 136
e 25 139
e 25 140
e 25 141
e 25 145
e 25 149
e 26 37
e 26 41
e 26 47
e 26 55
e 26 56
e 26 57
e 26 58
e 26 60
e 26 64
e 26 66
e 26 67
e 26 79
e 26 86
e 26 87
e 26 94
e 26 101
e 26 102
e 26 106
e 26 113
e 26 114
e 26 116
e 26 119
e 26 123
e 26 128
e 26 130
e 26 133
e 26 143
e 27 30
e 27 34
e 27 40
e 27 56
e 27 57
e 27 58
e 27 66
e 27 69
e 27 70
e 27 79
e 27 83
e 27 84
e 27 91
e 27 92
e 27 94
e 27 98
e 27 101
e 27 112
e 27 118
e 27 120
e 27 123
e 27 126
e 27 130
e 27 140
e 27 141
e 27 143
e 27 144
e 27 145
e 27 148
e 27 150
e 28 34
e 28 35
e 28 48
e 28 50
e 28 51
e 28 52
e 28 55
e 28 58
e 28 63
e 28 67
e 28 69
e 28 87
e 28 93
e 28 94
e 28 96
e 28 111
e 28 114
e 28 125
e 28 131
e 28 137
e 28 149
e 29 33
e 29 36
e 29 44
e 29 46
e 29 47
e 29 48
e 29 54
e 29 62
e 29 70
e 29 72
e 29 81
e 29 82
e 29 87
e 29 89
e 29 95
e 29 122
e 29 124
e 29 126
e 29 127
e 29 129
e 29 134
e 29 138
e 29 149
e 30 35
e 30 37
e 30 38
e 30 46
e 30 56
e 30 67
e 30 69
e 30 72
e 30 77
e 30 78
e 30 79
e 30 80
e 30 94
e 30 105
e 30 113
e 30 124
e 30 126
e 30 135
e 30 138
e 30 139
e 30 144
e 31 32
e 31 38
e 31 44
e 31 45
e 31 52
e 31 72
e 31 79
e 31 83
e 31 84
e 31 85
e 31 86
e 31 92
e 31 94
e 31 96
e 31 101
e 31 106
e 31 108
e 31 118
e 31 122
e 31 123
e 31 125
e 31 132
e 31 133
e 31 146
e 31 149
e 31 150
e 32 34
e 32 37
e 32 38
e 32 42
e 32 52
e 32 54
e 32 58
e 32 67
e 32 80
e 32 83
e 32 87
e 32 106
e 32 107
e 32 110
e 32 112
e 32 114
e 32 116
e 32 121
e 32 128
e 32 132
e 32 137
e 32 142
e 32 143
e 32 145
e 32 146
e 32 149
e 32 150
e 33 34
e 33 35
e 33 36
e 33 41
e 33 57
e 33 62
e 33 66
e 33 73
e 33 74
e 33 79
e 33 81
e 33 85
e 33 88
e 33 90
e 33 93
e 33 103
e 33 104
e 33 115
e 33 118
e 33 122
e 33 134
e 33 135
e 33 145
e 34 36
e 34 39
e 34 44
e 34 55
e 34 60
e 34 64
e 34 74
e 34 75
e 34 77
e 34 81
e 34 92
e 34 93
e 34 98
e 34 103
e 34 113
e 34 124
e 34 125
e 34 137
e 34 138
e 34 141
e 35 36
e 35 38
e 35 41
e 35 49
e 35 58
e 35 59
e 35 62
e 35 63
e 35 69
e 35 76
e 35 81
e 35 82
e 35 85
e 35 92
e 35 111
e 35 113
e 35 114
e 35 116
e 35 119
e 35 131
e 35 139
e 35 141
e 35 148
e 36 38
e 36 42
e 36 47
e 36 53
e 36 59
e 36 60
e 36 63
e 36 78
e 36 87
e 36 89
e 36 92
e 36 93
e 36 95
e 36 97
e 36 109
e 36 112
e 36 113
e 36 120
e 36 137
e 36 142
e 37 40
e 37 44
e 37 45
e 37 48
e 37 50
e 37 54
e 37 57
e 37 72
e 37 77
e 37 80
e 37 83
e 37 98
e 37 99
e 37 102
e 37 105
e 37 111
e 37 112
e 37 124
e 37 130
e 37 134
e 37 141
e 37 146
e 38 45
e 38 51
e 38 56
e 38 58
e 38 66
e 38 67
e 38 69
e 38 70
e 38 77
e 38 84
e 38 94
e 38 95
e 38 96
e 38 98
e 38 102
e 38 106
e 38 109
e 38 111
e 38 117
e 38 121
e 38 126
e 38 128
e 38 132
e 38 134
e 38 136
e 39 49
e 39 52
e 39 53
e 39 54
e 39 62
e 39 80
e 39 87
e 39 91
e 39 94
e 39 95
e 39 102
e 39 106
e 39 107
e 39 112
e 39 131
e 40 53
e 40 54
e 40 55
e 40 56
e 40 72
e 40 82
e 40 89
e 40 93
e 40 95
e 40 97
e 40 98
e 40 99
e 40 108
e 40 111
e 40 130
e 40 139
e 40 140
e 40 144
e 40 147
e 40 149
e 41 43
e 41 55
e 41 60
e 41 61
e 41 72
e 41 73
e 41 89
e 41 91
e 41 100
e 41 103
e 41 107
e 41 116
e 41 118
e 41 124
e 41 125
e 41 131
e 41 132
e 41 133
e 41 142
e 41 145
e 41 146
e 41 147
e 41 149
e 42 50
e 42 55
e 42 57
e 42 65
e 42 74
e 42 96
e 42 108
e 42 111
e 42 112
e 42 113
e 42 116
e 42 124
e 42 125
e 42 134
e 43 44
e 43 45
e 43 48
e 43 50
e 43 51
e 43 54
e 43 65
e 43 68
e 43 71
e 43 74
e 43 82
e 43 83
e 43 89
e 43 90
e 43 91
e 43 96
e 43 97
e 43 100
e 43 105
e 43 115
e 43 116
e 43 124
e 43 131
e 43 134
e 43 142
e 43 143
e 43 147
e 43 150
e 44 48
e 44 53
e 44 72
e 44 77
e 44 85
e 44 87
e 44 89
e 44 96
e 44 114
e 44 115
e 44 120
e 44 122
e 44 124
e 44 139
e 44 140
e 44 144
e 44 146
e 45 50
e 45 59
e 45 63
e 45 65
e 45 67
e 45 70
e 45 82
e 45 83
e 45 87
e 45 88
e 45 93
e 45 99
e 45 115
e 45 118
e 45 122
e 45 137
e 45 143
e 45 144
e 45 145
e 46 47
e 46 48
e 46 51
e 46 53
e 46 54
e 46 62
e 46 63
e 46 68
e 46 71
e 46 73
e 46 77
e 46 95
e 46 101
e 46 106
e 46 109
e 46 111
e 46 116
e 46 117
e 46 119
e 46 140
e 47 48
e 47 50
e 47 57
e 47 59
e 47 77
e 47 79
e 47 81
e 47 83
e 47 92
e 47 100
e 47 101
e 47 108
e 47 122
e 47 124
e 47 126
e 47 131
e 47 133
e 47 134
e 47 135
e 47 144
e 47 146
e 48 56
e 48 57
e 48 62
e 48 72
e 48 74
e 48 78
e 48 79
e 48 80
e 48 82
e 48 87
e 48 89
e 48 91
e 48 97
e 48 99
e 48 110
e 48 118
e 48 127
e 48 132
e 48 139
e 48 145
e 48 148
e 49 56
e 49 57
e 49 61
e 49 63
e 49 67
e 49 80
e 49 82
e 49 84
e 49 85
e 49 86
e 49 88
e 49 94
e 49 95
e 49 98
e 49 101
e 49 103
e 49 108
e 49 114
e 49 118
e 49 122
e 49 127
e 49 135
e 49 146
e 49 147
e 49 149
e 50 53
e 50 56
e 50 61
e 50 68
e 50 70
e 50 77
e 50 79
e 50 83
e 50 86
e 50 88
e 50 99
e 50 102
e 50 104
e 50 109
e 50 117
e 50 121
e 50 123
e 50 126
e 50 130
e 50 140
e 50 144
e 50 150
e 51 52
e 51 53
e 51 55
e 51 62
e 51 75
e 51 79
e 51 83
e 51 87
e 51 104
e 51 112
e 51 117
e 51 118
e 51 121
e 51 129
e 51 131
e 51 135
e 51 136
e 51 138
e 51 140
e 51 149
e 52 76
e 52 81
e 52 83
e 52 84
e 52 93
e 52 97
e 52 113
e 52 125
e 52 129
e 52 134
e 52 136
e 52 142
e 53 56
e 53 62
e 53 66
e 53 68
e 53 70
e 53 77
e 53 83
e 53 91
e 53 94
e 53 101
e 53 122
e 53 126
e 53 128
e 53 134
e 53 144
e 53 145
e 53 147
e 53 150
e 54 55
e 54 66
e 54 69
e 54 73
e 54 75
e 54 81
e 54 82
e 54 96
e 54 97
e 54 102
e 54 103
e 54 114
e 54 116
e 54 120
e 54 130
e 54 135
e 54 136
e 54 138
e 54 139
e 54 141
e 54 143
e 55 61
e 55 63
e 55 67
e 55 75
e 55 76
e 55 79
e 55 84
e 55 102
e 55 112
e 55 116
e 55 137
e 55 138
e 55 140
e 55 144
e 55 149
e 56 64
e 56 69
e 56 80
e 56 82
e 56 96
e 56 105
e 56 118
e 56 126
e 56 128
e 56 140
e 56 141
e 56 144
e 56 147
e 56 149
e 57 67
e 57 68
e 57 79
e 57 81
e 57 87
e 57 88
e 57 89
e 57 91
e 57 92
e 57 94
e 57 96
e 57 107
e 57 108
e 57 110
e 57 112
e 57 120
e 57 127
e 57 136
e 57 139
e 57 142
e 57 143
e 57 145
e 58 62
e 58 69
e 58 71
e 58 86
e 58 88
e 58 89
e 58 99
e 58 109
e 58 117
e 58 119
e 58 124
e 58 127
e 58 132
e 59 62
e 59 70
e 59 77
e 59 78
e 59 81
e 59 83
e 59 97
e 59 100
e 59 107
e 59 118
e 59 126
e 59 127
e 59 131
e 59 135
e 60 63
e 60 68
e 60 77
e 60 79
e 60 85
e 60 87
e 60 94
e 60 98
e 60 105
e 60 108
e 60 119
e 60 122
e 60 127
e 60 128
e 60 129
e 60 137
e 60 139
e 60 146
e 61 63
e 61 65
e 61 66
e 61 70
e 61 78
e 61 80
e 61 92
e 61 103
e 61 104
e 61 108
e 61 120
e 61 123
e 61 125
e 61 133
e 61 134
e 61 144
e 62 79
e 62 80
e 62 83
e 62 92
e 62 94
e 62 97
e 62 108
e 62 110
e 62 115
e 62 123
e 62 128
e 62 134
e 62 142
e 62 143
e 63 65
e 63 67
e 63 68
e 63 70
e 63 86
e 63 87
e 63 89
e 63 93
e 63 96
e 63 97
e 63 99
e 63 104
e 63 116
e 63 123
e 63 125
e 63 128
e 63 133
e 63 135
e 63 141
e 63 142
e 63 143
e 63 146
e 63 150
e 64 72
e 64 73
e 64 79
e 64 82
e 64 86
e 64 94
e 64 95
e 64 100
e 64 101
e 64 103
e 64 104
e 64 105
e 64 117
e 64 127
e 64 131
e 64 135
e 64 137
e 64 139
e 64 141
e 64 145
e 64 150
e 65 69
e 65 75
e 65 77
e 65 78
e 65 79
e 65 80
e 65 81
e 65 90
e 65 93
e 65 98
e 65 107
e 65 114
e 65 115
e 65 118
e 65 124
e 65 133
e 65 139
e 65 143
e 65 145
e 66 67
e 66 71
e 66 75
e 66 80
e 66 83
e 66 93
e 66 94
e 66 95
e 66 97
e 66 99
e 66 106
e 66 108
e 66 116
e 66 125
e 66 126
e 66 127
e 66 133
e 66 139
e 66 140
e 66 147
e 67 71
e 67 76
e 67 84
e 67 88
e 67 96
e 67 106
e 67 107
e 67 111
e 67 112
e 67 124
e 67 137
e 67 140
e 68 73
e 68 79
e 68 87
e 68 91
e 68 96
e 68 101
e 68 103
e 68 108
e 68 109
e 68 116
e 68 118
e 68 121
e 68 130
e 68 134
e 68 135
e 68 143
e 68 146
e 68 147
e 69 71
e 69 72
e 69 74
e 69 85
e 69 91
e 69 98
e 69 103
e 69 108
e 69 111
e 69 112
e 69 117
e 69 120
e 69 121
e 69 123
e 69 125
e 69 126
e 69 127
e 69 135
e 69 140
e 69 141
e 69 144
e 69 145
e 69 150
e 70 72
e 70 77
e 70 79
e 70 93
e 70 96
e 70 98
e 70 104
e 70 108
e 70 112
e 70 117
e 70 118
e 70 121
e 70 123
e 70 129
e 70 131
e 70 139
e 70 141
e 70 144
e 70 150
e 71 73
e 71 77
e 71 83
e 71 84
e 71 90
e 71 97
e 71 109
e 71 124
e 71 125
e 71 127
e 71 137
e 71 138
e 71 144
e 72 82
e 72 84
e 72 86
e 72 91
e 72 94
e 72 99
e 72 102
e 72 103
e 72 107
e 72 112
e 72 115
e 72 117
e 72 120
e 72 121
e 72 123
e 72 125
e 72 128
e 72 137
e 72 146
e 73 76
e 73 78
e 73 79
e 73 83
e 73 88
e 73 90
e 73 96
e 73 99
e 73 106
e 73 108
e 73 109
e 73 111
e 73 112
e 73 122
e 73 125
e 73 127
e 73 135
e 73 136
e 73 138
e 73 140
e 73 143
e 73 149
e 74 80
e 74 96
e 74 117
e 74 119
e 74 122
e 74 137
e 74 139
e 74 141
e 74 143
e 74 146
e 74 148
e 75 81
e 75 84
e 75 91
e 75 104
e 75 109
e 75 114
e 75 130
e 76 84
e 76 86
e 76 92
e 76 93
e 76 95
e 76 97
e 76 99
e 76 104
e 76 115
e 76 118
e 76 121
e 76 127
e 76 133
e 76 141
e 76 142
e 76 145
e 77 83
e 77 89
e 77 91
e 77 104
e 77 105
e 77 116
e 77 133
e 77 134
e 77 136
e 77 139
e 77 144
e 77 150
e 78 79
e 78 90
e 78 91
e 78 99
e 78 100
e 78 102
e 78 103
e 78 109
e 78 113
e 78 115
e 78 122
e 78 137
e 78 140
e 78 143
e 78 145
e 79 81
e 79 83
e 79 87
e 79 98
e 79 99
e 79 101
e 79 103
e 79 106
e 79 110
e 79 115
e 79 116
e 79 117
e 79 126
e 79 138
e 79 140
e 79 144
e 80 81
e 80 91
e 80 94
e 80 97
e 80 99
e 80 109
e 80 122
e 80 127
e 80 149
e 81 89
e 81 91
e 81 92
e 81 93
e 81 95
e 81 96
e 81 106
e 81 108
e 81 112
e 81 115
e 81 117
e 81 118
e 81 128
e 81 130
e 81 132
e 81 146
e 81 148
e 82 83
e 82 86
e 82 87
e 82 88
e 82 96
e 82 108
e 82 110
e 82 111
e 82 121
e 82 125
e 82 133
e 82 137
e 82 138
e 82 143
e 82 144
e 82 149
e 83 87
e 83 91
e 83 98
e 83 100
e 83 101
e 83 129
e 83 146
e 84 87
e 84 88
e 84 92
e 84 97
e 84 98
e 84 105
e 84 126
e 84 135
e 84 139
e 84 141
e 84 142
e 84 143
e 85 89
e 85 101
e 85 110
e 85 112
e 85 117
e 85 118
e 85 119
e 85 123
e 85 125
e 85 127
e 85 138
e 85 147
e 86 98
e 86 99
e 86 100
e 86 105
e 86 109
e 86 111
e 86 121
e 86 124
e 86 131
e 86 138
e 86 140
e 86 143
e 86 147
e 86 149
e 87 95
e 87 104
e 87 110
e 87 115
e 87 117
e 87 124
e 87 126
e 87 128
e 87 130
e 87 133
e 87 140
e 87 142
e 87 150
e 88 98
e 88 102
e 88 107
e 88 114
e 88 118
e 88 126
e 88 131
e 88 146
e 88 147
e 89 96
e 89 98
e 89 100
e 89 102
e 89 106
e 89 114
e 89 117
e 89 122
e 89 126
e 89 137
e 89 141
e 89 146
e 89 149
e 90 95
e 90 96
e 90 98
e 90 105
e 90 114
e 90 121
e 90 124
e 90 125
e 90 126
e 90 142
e 91 93
e 91 100
e 91 101
e 91 103
e 91 120
e 91 124
e 91 129
e 91 135
e 91 144
e 91 148
e 92 95
e 92 96
e 92 108
e 92 115
e 92 120
e 92 130
e 92 136
e 92 142
e 92 144
e 92 145
e 92 146
e 92 147
e 93 99
e 93 104
e 93 111
e 93 116
e 93 119
e 93 131
e 93 138
e 93 141
e 93 147
e 94 103
e 94 114
e 94 117
e 94 125
e 94 128
e 94 130
e 94 134
e 94 141
e 94 143
e 94 144
e 94 145
e 95 104
e 95 112
e 95 121
e 95 125
e 95 128
e 95 138
e 95 143
e 95 149
e 96 119
e 96 122
e 96 123
e 96 128
e 96 141
e 96 148
e 97 99
e 97 113
e 97 114
e 97 120
e 97 125
e 97 128
e 97 132
e 97 136
e 97 142
e 98 101
e 98 103
e 98 112
e 98 119
e 98 124
e 98 127
e 98 130
e 98 138
e 98 140
e 98 143
e 98 147
e 98 149
e 99 100
e 99 114
e 99 115
e 99 119
e 99 122
e 99 130
e 99 133
e 99 145
e 99 150
e 100 105
e 100 108
e 100 109
e 100 114
e 100 116
e 100 117
e 100 119
e 100 124
e 100 133
e 100 140
e 100 142
e 101 102
e 101 103
e 101 111
e 101 112
e 101 114
e 101 115
e 101 117
e 101 119
e 101 120
e 101 128
e 101 129
e 101 130
e 101 136
e 101 137
e 102 105
e 102 112
e 102 113
e 102 123
e 102 125
e 102 127
e 102 128
e 102 131
e 102 132
e 102 133
e 102 139
e 102 147
e 102 150
e 103 107
e 103 109
e 103 129
e 103 130
e 103 140
e 103 141
e 104 115
e 104 118
e 104 120
e 104 132
e 104 143
e 105 108
e 105 111
e 105 123
e 105 138
e 105 142
e 106 110
e 106 117
e 106 128
e 106 130
e 106 139
e 106 145
e 106 147
e 107 110
e 107 121
e 107 123
e 107 124
e 107 125
e 107 138
e 107 139
e 107 144
e 107 150
e 108 109
e 108 115
e 108 118
e 108 124
e 108 126
e 108 148
e 108 150
e 109 117
e 109 118
e 109 126
e 109 141
e 109 147
e 110 112
e 110 113
e 110 119
e 110 125
e 110 126
e 110 130
e 110 142
e 110 144
e 110 147
e 110 148
e 111 115
e 111 119
e 111 125
e 111 131
e 111 133
e 111 134
e 111 147
e 112 120
e 112 129
e 112 131
e 112 137
e 112 140
e 112 141
e 112 147
e 113 114
e 113 124
e 113 127
e 113 132
e 113 135
e 113 136
e 113 137
e 113 143
e 113 145
e 113 148
e 113 149
e 114 118
e 114 142
e 114 149
e 115 116
e 115 120
e 115 121
e 115 132
e 115 145
e 115 146
e 116 119
e 116 123
e 116 126
e 116 129
e 116 131
e 116 132
e 116 138
e 116 143
e 116 145
e 116 146
e 116 150
e 117 129
e 117 145
e 117 146
e 117 149
e 118 122
e 118 131
e 118 135
e 118 138
e 118 139
e 118 147
e 118 148
e 119 121
e 119 124
e 119 129
e 119 132
e 119 134
e 119 136
e 119 138
e 119 148
e 120 135
e 120 136
e 120 150
e 121 129
e 122 127
e 122 128
e 122 129
e 122 131
e 122 132
e 122 135
e 122 136
e 122 138
e 122 149
e 123 124
e 123 129
e 123 132
e 123 138
e 123 142
e 123 145
e 123 146
e 123 147
e 124 127
e 124 134
e 124 135
e 124 139
e 124 140
e 124 149
e 125 128
e 125 129
e 125 135
e 125 146
e 125 148
e 126 132
e 126 137
e 126 138
e 126 140
e 127 148
e 127 149
e 128 138
e 128 139
e 128 141
e 128 147
e 128 150
e 129 139
e 129 144
e 129 148
e 129 150
e 130 139
e 131 139
e 132 133
e 132 141
e 132 142
e 132 143
e 133 135
e 133 139
e 133 147
e 133 150
e 134 136
e 135 142
e 135 143
e 135 148
e 136 139
e 136 143
e 136 148
e 137 138
e 137 146
e 137 150
e 138 145
e 139 140
e 139 141
e 139 142
e 139 143
e 139 146
e 139 149
e 140 144
e 140 148
e 141 145
e 141 147
e 141 150
e 142 147
e 142 148
e 142 149
e 144 146
e 144 147
e 144 150
e 145 146
e 145 148
e 145 149
e 149 150
